c graph colorability of graph:
c random_regular_graph(5, 98).
c
c Generated with `cnfgen`
c (C) 2012-2016 Massimo Lauria <lauria.massimo@gmail.com>
c https://massimolauria.github.io/cnfgen
c
p cnf 294 1127
1 2 3 0
-1 -2 0
-1 -3 0
-2 -3 0
4 5 6 0
-4 -5 0
-4 -6 0
-5 -6 0
7 8 9 0
-7 -8 0
-7 -9 0
-8 -9 0
10 11 12 0
-10 -11 0
-10 -12 0
-11 -12 0
13 14 15 0
-13 -14 0
-13 -15 0
-14 -15 0
16 17 18 0
-16 -17 0
-16 -18 0
-17 -18 0
19 20 21 0
-19 -20 0
-19 -21 0
-20 -21 0
22 23 24 0
-22 -23 0
-22 -24 0
-23 -24 0
25 26 27 0
-25 -26 0
-25 -27 0
-26 -27 0
28 29 30 0
-28 -29 0
-28 -30 0
-29 -30 0
31 32 33 0
-31 -32 0
-31 -33 0
-32 -33 0
34 35 36 0
-34 -35 0
-34 -36 0
-35 -36 0
37 38 39 0
-37 -38 0
-37 -39 0
-38 -39 0
40 41 42 0
-40 -41 0
-40 -42 0
-41 -42 0
43 44 45 0
-43 -44 0
-43 -45 0
-44 -45 0
46 47 48 0
-46 -47 0
-46 -48 0
-47 -48 0
49 50 51 0
-49 -50 0
-49 -51 0
-50 -51 0
52 53 54 0
-52 -53 0
-52 -54 0
-53 -54 0
55 56 57 0
-55 -56 0
-55 -57 0
-56 -57 0
58 59 60 0
-58 -59 0
-58 -60 0
-59 -60 0
61 62 63 0
-61 -62 0
-61 -63 0
-62 -63 0
64 65 66 0
-64 -65 0
-64 -66 0
-65 -66 0
67 68 69 0
-67 -68 0
-67 -69 0
-68 -69 0
70 71 72 0
-70 -71 0
-70 -72 0
-71 -72 0
73 74 75 0
-73 -74 0
-73 -75 0
-74 -75 0
76 77 78 0
-76 -77 0
-76 -78 0
-77 -78 0
79 80 81 0
-79 -80 0
-79 -81 0
-80 -81 0
82 83 84 0
-82 -83 0
-82 -84 0
-83 -84 0
85 86 87 0
-85 -86 0
-85 -87 0
-86 -87 0
88 89 90 0
-88 -89 0
-88 -90 0
-89 -90 0
91 92 93 0
-91 -92 0
-91 -93 0
-92 -93 0
94 95 96 0
-94 -95 0
-94 -96 0
-95 -96 0
97 98 99 0
-97 -98 0
-97 -99 0
-98 -99 0
100 101 102 0
-100 -101 0
-100 -102 0
-101 -102 0
103 104 105 0
-103 -104 0
-103 -105 0
-104 -105 0
106 107 108 0
-106 -107 0
-106 -108 0
-107 -108 0
109 110 111 0
-109 -110 0
-109 -111 0
-110 -111 0
112 113 114 0
-112 -113 0
-112 -114 0
-113 -114 0
115 116 117 0
-115 -116 0
-115 -117 0
-116 -117 0
118 119 120 0
-118 -119 0
-118 -120 0
-119 -120 0
121 122 123 0
-121 -122 0
-121 -123 0
-122 -123 0
124 125 126 0
-124 -125 0
-124 -126 0
-125 -126 0
127 128 129 0
-127 -128 0
-127 -129 0
-128 -129 0
130 131 132 0
-130 -131 0
-130 -132 0
-131 -132 0
133 134 135 0
-133 -134 0
-133 -135 0
-134 -135 0
136 137 138 0
-136 -137 0
-136 -138 0
-137 -138 0
139 140 141 0
-139 -140 0
-139 -141 0
-140 -141 0
142 143 144 0
-142 -143 0
-142 -144 0
-143 -144 0
145 146 147 0
-145 -146 0
-145 -147 0
-146 -147 0
148 149 150 0
-148 -149 0
-148 -150 0
-149 -150 0
151 152 153 0
-151 -152 0
-151 -153 0
-152 -153 0
154 155 156 0
-154 -155 0
-154 -156 0
-155 -156 0
157 158 159 0
-157 -158 0
-157 -159 0
-158 -159 0
160 161 162 0
-160 -161 0
-160 -162 0
-161 -162 0
163 164 165 0
-163 -164 0
-163 -165 0
-164 -165 0
166 167 168 0
-166 -167 0
-166 -168 0
-167 -168 0
169 170 171 0
-169 -170 0
-169 -171 0
-170 -171 0
172 173 174 0
-172 -173 0
-172 -174 0
-173 -174 0
175 176 177 0
-175 -176 0
-175 -177 0
-176 -177 0
178 179 180 0
-178 -179 0
-178 -180 0
-179 -180 0
181 182 183 0
-181 -182 0
-181 -183 0
-182 -183 0
184 185 186 0
-184 -185 0
-184 -186 0
-185 -186 0
187 188 189 0
-187 -188 0
-187 -189 0
-188 -189 0
190 191 192 0
-190 -191 0
-190 -192 0
-191 -192 0
193 194 195 0
-193 -194 0
-193 -195 0
-194 -195 0
196 197 198 0
-196 -197 0
-196 -198 0
-197 -198 0
199 200 201 0
-199 -200 0
-199 -201 0
-200 -201 0
202 203 204 0
-202 -203 0
-202 -204 0
-203 -204 0
205 206 207 0
-205 -206 0
-205 -207 0
-206 -207 0
208 209 210 0
-208 -209 0
-208 -210 0
-209 -210 0
211 212 213 0
-211 -212 0
-211 -213 0
-212 -213 0
214 215 216 0
-214 -215 0
-214 -216 0
-215 -216 0
217 218 219 0
-217 -218 0
-217 -219 0
-218 -219 0
220 221 222 0
-220 -221 0
-220 -222 0
-221 -222 0
223 224 225 0
-223 -224 0
-223 -225 0
-224 -225 0
226 227 228 0
-226 -227 0
-226 -228 0
-227 -228 0
229 230 231 0
-229 -230 0
-229 -231 0
-230 -231 0
232 233 234 0
-232 -233 0
-232 -234 0
-233 -234 0
235 236 237 0
-235 -236 0
-235 -237 0
-236 -237 0
238 239 240 0
-238 -239 0
-238 -240 0
-239 -240 0
241 242 243 0
-241 -242 0
-241 -243 0
-242 -243 0
244 245 246 0
-244 -245 0
-244 -246 0
-245 -246 0
247 248 249 0
-247 -248 0
-247 -249 0
-248 -249 0
250 251 252 0
-250 -251 0
-250 -252 0
-251 -252 0
253 254 255 0
-253 -254 0
-253 -255 0
-254 -255 0
256 257 258 0
-256 -257 0
-256 -258 0
-257 -258 0
259 260 261 0
-259 -260 0
-259 -261 0
-260 -261 0
262 263 264 0
-262 -263 0
-262 -264 0
-263 -264 0
265 266 267 0
-265 -266 0
-265 -267 0
-266 -267 0
268 269 270 0
-268 -269 0
-268 -270 0
-269 -270 0
271 272 273 0
-271 -272 0
-271 -273 0
-272 -273 0
274 275 276 0
-274 -275 0
-274 -276 0
-275 -276 0
277 278 279 0
-277 -278 0
-277 -279 0
-278 -279 0
280 281 282 0
-280 -281 0
-280 -282 0
-281 -282 0
283 284 285 0
-283 -284 0
-283 -285 0
-284 -285 0
286 287 288 0
-286 -287 0
-286 -288 0
-287 -288 0
289 290 291 0
-289 -290 0
-289 -291 0
-290 -291 0
292 293 294 0
-292 -293 0
-292 -294 0
-293 -294 0
-1 -73 0
-2 -74 0
-3 -75 0
-1 -193 0
-2 -194 0
-3 -195 0
-1 -199 0
-2 -200 0
-3 -201 0
-1 -202 0
-2 -203 0
-3 -204 0
-1 -268 0
-2 -269 0
-3 -270 0
-4 -97 0
-5 -98 0
-6 -99 0
-4 -124 0
-5 -125 0
-6 -126 0
-4 -166 0
-5 -167 0
-6 -168 0
-4 -211 0
-5 -212 0
-6 -213 0
-4 -286 0
-5 -287 0
-6 -288 0
-7 -43 0
-8 -44 0
-9 -45 0
-7 -85 0
-8 -86 0
-9 -87 0
-7 -130 0
-8 -131 0
-9 -132 0
-7 -241 0
-8 -242 0
-9 -243 0
-7 -259 0
-8 -260 0
-9 -261 0
-10 -55 0
-11 -56 0
-12 -57 0
-10 -160 0
-11 -161 0
-12 -162 0
-10 -193 0
-11 -194 0
-12 -195 0
-10 -229 0
-11 -230 0
-12 -231 0
-10 -268 0
-11 -269 0
-12 -270 0
-13 -70 0
-14 -71 0
-15 -72 0
-13 -142 0
-14 -143 0
-15 -144 0
-13 -160 0
-14 -161 0
-15 -162 0
-13 -181 0
-14 -182 0
-15 -183 0
-13 -271 0
-14 -272 0
-15 -273 0
-16 -91 0
-17 -92 0
-18 -93 0
-16 -145 0
-17 -146 0
-18 -147 0
-16 -151 0
-17 -152 0
-18 -153 0
-16 -214 0
-17 -215 0
-18 -216 0
-16 -223 0
-17 -224 0
-18 -225 0
-19 -112 0
-20 -113 0
-21 -114 0
-19 -115 0
-20 -116 0
-21 -117 0
-19 -247 0
-20 -248 0
-21 -249 0
-19 -256 0
-20 -257 0
-21 -258 0
-19 -274 0
-20 -275 0
-21 -276 0
-22 -112 0
-23 -113 0
-24 -114 0
-22 -118 0
-23 -119 0
-24 -120 0
-22 -127 0
-23 -128 0
-24 -129 0
-22 -235 0
-23 -236 0
-24 -237 0
-22 -280 0
-23 -281 0
-24 -282 0
-25 -34 0
-26 -35 0
-27 -36 0
-25 -58 0
-26 -59 0
-27 -60 0
-25 -79 0
-26 -80 0
-27 -81 0
-25 -82 0
-26 -83 0
-27 -84 0
-25 -85 0
-26 -86 0
-27 -87 0
-28 -34 0
-29 -35 0
-30 -36 0
-28 -124 0
-29 -125 0
-30 -126 0
-28 -133 0
-29 -134 0
-30 -135 0
-28 -181 0
-29 -182 0
-30 -183 0
-28 -280 0
-29 -281 0
-30 -282 0
-31 -154 0
-32 -155 0
-33 -156 0
-31 -196 0
-32 -197 0
-33 -198 0
-31 -211 0
-32 -212 0
-33 -213 0
-31 -220 0
-32 -221 0
-33 -222 0
-31 -259 0
-32 -260 0
-33 -261 0
-34 -37 0
-35 -38 0
-36 -39 0
-34 -154 0
-35 -155 0
-36 -156 0
-34 -157 0
-35 -158 0
-36 -159 0
-37 -139 0
-38 -140 0
-39 -141 0
-37 -178 0
-38 -179 0
-39 -180 0
-37 -286 0
-38 -287 0
-39 -288 0
-37 -289 0
-38 -290 0
-39 -291 0
-40 -52 0
-41 -53 0
-42 -54 0
-40 -55 0
-41 -56 0
-42 -57 0
-40 -64 0
-41 -65 0
-42 -66 0
-40 -178 0
-41 -179 0
-42 -180 0
-40 -187 0
-41 -188 0
-42 -189 0
-43 -58 0
-44 -59 0
-45 -60 0
-43 -163 0
-44 -164 0
-45 -165 0
-43 -196 0
-44 -197 0
-45 -198 0
-43 -205 0
-44 -206 0
-45 -207 0
-46 -97 0
-47 -98 0
-48 -99 0
-46 -109 0
-47 -110 0
-48 -111 0
-46 -220 0
-47 -221 0
-48 -222 0
-46 -232 0
-47 -233 0
-48 -234 0
-46 -256 0
-47 -257 0
-48 -258 0
-49 -67 0
-50 -68 0
-51 -69 0
-49 -163 0
-50 -164 0
-51 -165 0
-49 -184 0
-50 -185 0
-51 -186 0
-49 -253 0
-50 -254 0
-51 -255 0
-49 -268 0
-50 -269 0
-51 -270 0
-52 -136 0
-53 -137 0
-54 -138 0
-52 -142 0
-53 -143 0
-54 -144 0
-52 -217 0
-53 -218 0
-54 -219 0
-52 -271 0
-53 -272 0
-54 -273 0
-55 -187 0
-56 -188 0
-57 -189 0
-55 -211 0
-56 -212 0
-57 -213 0
-55 -289 0
-56 -290 0
-57 -291 0
-58 -64 0
-59 -65 0
-60 -66 0
-58 -136 0
-59 -137 0
-60 -138 0
-58 -271 0
-59 -272 0
-60 -273 0
-61 -100 0
-62 -101 0
-63 -102 0
-61 -136 0
-62 -137 0
-63 -138 0
-61 -151 0
-62 -152 0
-63 -153 0
-61 -160 0
-62 -161 0
-63 -162 0
-61 -268 0
-62 -269 0
-63 -270 0
-64 -118 0
-65 -119 0
-66 -120 0
-64 -181 0
-65 -182 0
-66 -183 0
-64 -184 0
-65 -185 0
-66 -186 0
-67 -214 0
-68 -215 0
-69 -216 0
-67 -232 0
-68 -233 0
-69 -234 0
-67 -262 0
-68 -263 0
-69 -264 0
-67 -292 0
-68 -293 0
-69 -294 0
-70 -100 0
-71 -101 0
-72 -102 0
-70 -151 0
-71 -152 0
-72 -153 0
-70 -169 0
-71 -170 0
-72 -171 0
-70 -244 0
-71 -245 0
-72 -246 0
-73 -169 0
-74 -170 0
-75 -171 0
-73 -253 0
-74 -254 0
-75 -255 0
-73 -286 0
-74 -287 0
-75 -288 0
-73 -292 0
-74 -293 0
-75 -294 0
-76 -79 0
-77 -80 0
-78 -81 0
-76 -85 0
-77 -86 0
-78 -87 0
-76 -115 0
-77 -116 0
-78 -117 0
-76 -259 0
-77 -260 0
-78 -261 0
-76 -283 0
-77 -284 0
-78 -285 0
-79 -82 0
-80 -83 0
-81 -84 0
-79 -133 0
-80 -134 0
-81 -135 0
-79 -265 0
-80 -266 0
-81 -267 0
-82 -91 0
-83 -92 0
-84 -93 0
-82 -265 0
-83 -266 0
-84 -267 0
-82 -271 0
-83 -272 0
-84 -273 0
-85 -97 0
-86 -98 0
-87 -99 0
-85 -166 0
-86 -167 0
-87 -168 0
-88 -151 0
-89 -152 0
-90 -153 0
-88 -166 0
-89 -167 0
-90 -168 0
-88 -193 0
-89 -194 0
-90 -195 0
-88 -208 0
-89 -209 0
-90 -210 0
-88 -223 0
-89 -224 0
-90 -225 0
-91 -103 0
-92 -104 0
-93 -105 0
-91 -121 0
-92 -122 0
-93 -123 0
-91 -127 0
-92 -128 0
-93 -129 0
-94 -109 0
-95 -110 0
-96 -111 0
-94 -190 0
-95 -191 0
-96 -192 0
-94 -232 0
-95 -233 0
-96 -234 0
-94 -262 0
-95 -263 0
-96 -264 0
-94 -280 0
-95 -281 0
-96 -282 0
-97 -157 0
-98 -158 0
-99 -159 0
-97 -292 0
-98 -293 0
-99 -294 0
-100 -127 0
-101 -128 0
-102 -129 0
-100 -205 0
-101 -206 0
-102 -207 0
-100 -253 0
-101 -254 0
-102 -255 0
-103 -226 0
-104 -227 0
-105 -228 0
-103 -235 0
-104 -236 0
-105 -237 0
-103 -247 0
-104 -248 0
-105 -249 0
-103 -256 0
-104 -257 0
-105 -258 0
-106 -181 0
-107 -182 0
-108 -183 0
-106 -190 0
-107 -191 0
-108 -192 0
-106 -220 0
-107 -221 0
-108 -222 0
-106 -238 0
-107 -239 0
-108 -240 0
-106 -283 0
-107 -284 0
-108 -285 0
-109 -202 0
-110 -203 0
-111 -204 0
-109 -205 0
-110 -206 0
-111 -207 0
-109 -238 0
-110 -239 0
-111 -240 0
-112 -115 0
-113 -116 0
-114 -117 0
-112 -223 0
-113 -224 0
-114 -225 0
-112 -250 0
-113 -251 0
-114 -252 0
-115 -211 0
-116 -212 0
-117 -213 0
-115 -289 0
-116 -290 0
-117 -291 0
-118 -166 0
-119 -167 0
-120 -168 0
-118 -178 0
-119 -179 0
-120 -180 0
-118 -277 0
-119 -278 0
-120 -279 0
-121 -157 0
-122 -158 0
-123 -159 0
-121 -196 0
-122 -197 0
-123 -198 0
-121 -229 0
-122 -230 0
-123 -231 0
-121 -253 0
-122 -254 0
-123 -255 0
-124 -142 0
-125 -143 0
-126 -144 0
-124 -208 0
-125 -209 0
-126 -210 0
-124 -274 0
-125 -275 0
-126 -276 0
-127 -175 0
-128 -176 0
-129 -177 0
-127 -244 0
-128 -245 0
-129 -246 0
-130 -136 0
-131 -137 0
-132 -138 0
-130 -172 0
-131 -173 0
-132 -174 0
-130 -193 0
-131 -194 0
-132 -195 0
-130 -208 0
-131 -209 0
-132 -210 0
-133 -142 0
-134 -143 0
-135 -144 0
-133 -232 0
-134 -233 0
-135 -234 0
-133 -256 0
-134 -257 0
-135 -258 0
-136 -172 0
-137 -173 0
-138 -174 0
-139 -184 0
-140 -185 0
-141 -186 0
-139 -187 0
-140 -188 0
-141 -189 0
-139 -241 0
-140 -242 0
-141 -243 0
-139 -268 0
-140 -269 0
-141 -270 0
-142 -205 0
-143 -206 0
-144 -207 0
-145 -226 0
-146 -227 0
-147 -228 0
-145 -265 0
-146 -266 0
-147 -267 0
-145 -271 0
-146 -272 0
-147 -273 0
-145 -283 0
-146 -284 0
-147 -285 0
-148 -175 0
-149 -176 0
-150 -177 0
-148 -184 0
-149 -185 0
-150 -186 0
-148 -187 0
-149 -188 0
-150 -189 0
-148 -190 0
-149 -191 0
-150 -192 0
-148 -229 0
-149 -230 0
-150 -231 0
-151 -223 0
-152 -224 0
-153 -225 0
-154 -169 0
-155 -170 0
-156 -171 0
-154 -214 0
-155 -215 0
-156 -216 0
-154 -244 0
-155 -245 0
-156 -246 0
-157 -169 0
-158 -170 0
-159 -171 0
-157 -286 0
-158 -287 0
-159 -288 0
-160 -187 0
-161 -188 0
-162 -189 0
-160 -226 0
-161 -227 0
-162 -228 0
-163 -199 0
-164 -200 0
-165 -201 0
-163 -217 0
-164 -218 0
-165 -219 0
-163 -286 0
-164 -287 0
-165 -288 0
-166 -229 0
-167 -230 0
-168 -231 0
-169 -277 0
-170 -278 0
-171 -279 0
-172 -178 0
-173 -179 0
-174 -180 0
-172 -241 0
-173 -242 0
-174 -243 0
-172 -274 0
-173 -275 0
-174 -276 0
-175 -199 0
-176 -200 0
-177 -201 0
-175 -229 0
-176 -230 0
-177 -231 0
-175 -277 0
-176 -278 0
-177 -279 0
-178 -241 0
-179 -242 0
-180 -243 0
-181 -202 0
-182 -203 0
-183 -204 0
-184 -202 0
-185 -203 0
-186 -204 0
-190 -256 0
-191 -257 0
-192 -258 0
-190 -283 0
-191 -284 0
-192 -285 0
-193 -214 0
-194 -215 0
-195 -216 0
-196 -235 0
-197 -236 0
-198 -237 0
-196 -262 0
-197 -263 0
-198 -264 0
-199 -265 0
-200 -266 0
-201 -267 0
-199 -292 0
-200 -293 0
-201 -294 0
-202 -262 0
-203 -263 0
-204 -264 0
-205 -274 0
-206 -275 0
-207 -276 0
-208 -238 0
-209 -239 0
-210 -240 0
-208 -250 0
-209 -251 0
-210 -252 0
-211 -289 0
-212 -290 0
-213 -291 0
-214 -247 0
-215 -248 0
-216 -249 0
-217 -247 0
-218 -248 0
-219 -249 0
-217 -250 0
-218 -251 0
-219 -252 0
-217 -259 0
-218 -260 0
-219 -261 0
-220 -265 0
-221 -266 0
-222 -267 0
-220 -277 0
-221 -278 0
-222 -279 0
-223 -226 0
-224 -227 0
-225 -228 0
-226 -259 0
-227 -260 0
-228 -261 0
-232 -262 0
-233 -263 0
-234 -264 0
-235 -283 0
-236 -284 0
-237 -285 0
-235 -292 0
-236 -293 0
-237 -294 0
-238 -244 0
-239 -245 0
-240 -246 0
-238 -250 0
-239 -251 0
-240 -252 0
-241 -244 0
-242 -245 0
-243 -246 0
-247 -280 0
-248 -281 0
-249 -282 0
-250 -280 0
-251 -281 0
-252 -282 0
-253 -277 0
-254 -278 0
-255 -279 0
-274 -289 0
-275 -290 0
-276 -291 0
